(set-logic ALL)
(declare-fun i1 () Int)
(declare-fun it1 () Int)
(declare-fun it2 () Int)
(declare-fun i2 () Int)
(declare-fun it3 () Int)
(declare-fun i3 () Int)
(declare-fun it4 () Int)
(declare-fun i4 () Int)
(declare-fun it5 () Int)
(declare-fun i5 () Int)
(declare-fun it6 () Int)
(declare-fun i6 () Int)
(declare-fun i7 () Int)
(declare-fun it7 () Int)
(declare-fun it235 () Int)
(declare-fun it236 () Int)
(declare-fun it237 () Int)
(declare-fun it238 () Int)
(declare-fun it239 () Int)
(declare-fun it240 () Int)
(declare-fun it241 () Int)
(declare-fun it140 () Int)
(assert (= (+ i1 (- 1)) 0))
(assert (= (+ it1 (- 2)) 0))
(assert (= (+ (* i2 (- 1)) it2 (- 1)) 0))
(assert (= (+ (* i3 (- 1)) it3) 0))
(assert (= (+ (* i4 (- 1)) it4) 0))
(assert (= (+ (* i5 (- 1)) it5) 0))
(assert (= (+ (* i6 (- 1)) it6) 0))
(assert (= (+ it7 (* i7 (- 1))) 0))
(assert (and (<= (+ (* it6 (- 1)) (- 5)) 0)
     (> it3 0)
     (= (+ it1 (- 2)) 0)
     (<= (+ it6 (- 5)) 0)))
(assert (= (+ it235 (- 3)) 0))
(assert (= (+ it236 (* it2 (- 1)) (- 2)) 0))
(assert (= (+ it237 (* it3 (- 1))) 0))
(assert (= (+ it238 (* it3 (- 1))) 0))
(assert (= (+ (* it7 (- 1)) it239) 0))
(assert (= (+ it240 (* it6 (- 1))) 0))
(assert (= (+ (* it7 (- 1)) it241) 0))
(assert (let ((a!1 (* (* (exp 9 (+ it140 (- 1))) (exp it240 3)) (+ 0 (- 3))))
      (a!2 (* (exp it238 2) (exp (exp 4 (+ it140 (- 1))) (+ 0 2))))
      (a!3 (* (* (exp 9 (+ it140 (- 1))) (+ 0 it239)) (+ 0 3)))
      (a!5 (* (* (exp 9 (+ it140 (- 1))) (exp it240 3)) (+ 0 (- 1))))
      (a!7 (> (+ (* (exp it240 5) (+ 0 (- 1)))
                 (+ 0 it239)
                 (* (exp it238 2) (+ 0 (- 1))))
              (+ 0 0))))
(let ((a!4 (> (+ a!1
                 (* (exp it240 5) (+ 0 (- 1)))
                 (* a!2 (+ 0 (- 4)))
                 a!3
                 (exp it240 3))
              (+ 0 0)))
      (a!6 (+ a!5
              (* (exp it240 5) (+ 0 (- 1)))
              (* a!2 (+ 0 (- 1)))
              (* (exp 9 (+ it140 (- 1))) (+ 0 it239))
              (exp it240 3))))
  (and a!4
       (> a!6 (+ 0 0))
       (> (* it238 (- 1)) 0)
       (> (* it238 (- 2)) 0)
       (>= (+ it140 (- 1)) 0)
       a!7
       (>= (+ it235 (- 3)) 0)
       (>= (+ (* it235 (- 1)) 3) 0)))))
(check-sat)
